unknown
(model
; cardinality of BoundSet is 2
(declare-sort BoundSet 0)
; rep: @uc_BoundSet_0
; rep: @uc_BoundSet_1
(declare-sort UnboundSet 0)
(define-fun IsToddler ((BOUND_VARIABLE_428 BoundSet)) Bool true)
(define-fun IsOnShoulders ((BOUND_VARIABLE_428 BoundSet)) Bool true)
(define-fun IsFun ((BOUND_VARIABLE_428 BoundSet)) Bool false)
(define-fun IsWithDad ((BOUND_VARIABLE_428 BoundSet)) Bool false)
)
